(declare-fun |c::main::1::IN!0@1#0| () (_ FloatingPoint 8 24))
(assert (let ((.def_17 (fp.mul RNE |c::main::1::IN!0@1#0| |c::main::1::IN!0@1#0|)))
(let ((.def_23 (fp.mul RNE |c::main::1::IN!0@1#0| .def_17)))
(let ((.def_24 (fp.mul RNE |c::main::1::IN!0@1#0| .def_23)))
(let ((.def_29 (fp.mul RNE |c::main::1::IN!0@1#0| .def_24)))
(let ((.def_30 (fp.mul RNE |c::main::1::IN!0@1#0| .def_29)))
(let ((.def_33 (fp.div RNE .def_30 (fp #b0 #b10001000 #b01101000000000000000000))))
(let ((.def_27 (fp.div RNE .def_24 (fp #b0 #b10000011 #b10000000000000000000000))))
(let ((.def_20 (fp.div RNE .def_17 (fp #b0 #b10000000 #b00000000000000000000000))))
(let ((.def_21 (fp.neg .def_20)))
(let ((.def_22 (fp.add RNE (fp #b0 #b01111111 #b00000000000000000000000) .def_21)))
(let ((.def_28 (fp.add RNE .def_22 .def_27)))
(let ((.def_34 (fp.add RNE .def_28 .def_33)))
(let ((.def_44 (fp.mul RNE |c::main::1::IN!0@1#0| .def_30)))
(let ((.def_47 (fp.div RNE .def_44 (fp #b0 #b10001011 #b00111011000000000000000))))
(let ((.def_42 (fp.div RNE .def_29 (fp #b0 #b10000101 #b11100000000000000000000))))
(let ((.def_37 (fp.div RNE .def_23 (fp #b0 #b10000001 #b10000000000000000000000))))
(let ((.def_38 (fp.neg .def_37)))
(let ((.def_39 (fp.add RNE |c::main::1::IN!0@1#0| .def_38)))
(let ((.def_43 (fp.add RNE .def_39 .def_42)))
(let ((.def_48 (fp.add RNE .def_43 .def_47)))
(let ((.def_49 (fp.div RNE .def_48 .def_34)))
(let ((.def_50 (fp.neg .def_49)))
(let ((.def_51 (fp.add RNE |c::main::1::IN!0@1#0| .def_50)))
(let ((.def_52 (fp.mul RNE .def_51 .def_51)))
(let ((.def_56 (fp.mul RNE .def_51 .def_52)))
(let ((.def_57 (fp.mul RNE .def_51 .def_56)))
(let ((.def_60 (fp.mul RNE .def_51 .def_57)))
(let ((.def_61 (fp.mul RNE .def_51 .def_60)))
(let ((.def_62 (fp.div RNE .def_61 (fp #b0 #b10001000 #b01101000000000000000000))))
(let ((.def_58 (fp.div RNE .def_57 (fp #b0 #b10000011 #b10000000000000000000000))))
(let ((.def_53 (fp.div RNE .def_52 (fp #b0 #b10000000 #b00000000000000000000000))))
(let ((.def_54 (fp.neg .def_53)))
(let ((.def_55 (fp.add RNE (fp #b0 #b01111111 #b00000000000000000000000) .def_54)))
(let ((.def_59 (fp.add RNE .def_55 .def_58)))
(let ((.def_63 (fp.add RNE .def_59 .def_62)))
(let ((.def_69 (fp.mul RNE .def_51 .def_61)))
(let ((.def_70 (fp.div RNE .def_69 (fp #b0 #b10001011 #b00111011000000000000000))))
(let ((.def_67 (fp.div RNE .def_60 (fp #b0 #b10000101 #b11100000000000000000000))))
(let ((.def_64 (fp.div RNE .def_56 (fp #b0 #b10000001 #b10000000000000000000000))))
(let ((.def_65 (fp.neg .def_64)))
(let ((.def_66 (fp.add RNE .def_51 .def_65)))
(let ((.def_68 (fp.add RNE .def_66 .def_67)))
(let ((.def_71 (fp.add RNE .def_68 .def_70)))
(let ((.def_72 (fp.div RNE .def_71 .def_63)))
(let ((.def_73 (fp.neg .def_72)))
(let ((.def_74 (fp.add RNE .def_51 .def_73)))
(let ((.def_75 (fp.mul RNE .def_74 .def_74)))
(let ((.def_79 (fp.mul RNE .def_74 .def_75)))
(let ((.def_80 (fp.mul RNE .def_74 .def_79)))
(let ((.def_83 (fp.mul RNE .def_74 .def_80)))
(let ((.def_84 (fp.mul RNE .def_74 .def_83)))
(let ((.def_85 (fp.div RNE .def_84 (fp #b0 #b10001000 #b01101000000000000000000))))
(let ((.def_81 (fp.div RNE .def_80 (fp #b0 #b10000011 #b10000000000000000000000))))
(let ((.def_76 (fp.div RNE .def_75 (fp #b0 #b10000000 #b00000000000000000000000))))
(let ((.def_77 (fp.neg .def_76)))
(let ((.def_78 (fp.add RNE (fp #b0 #b01111111 #b00000000000000000000000) .def_77)))
(let ((.def_82 (fp.add RNE .def_78 .def_81)))
(let ((.def_86 (fp.add RNE .def_82 .def_85)))
(let ((.def_92 (fp.mul RNE .def_74 .def_84)))
(let ((.def_93 (fp.div RNE .def_92 (fp #b0 #b10001011 #b00111011000000000000000))))
(let ((.def_90 (fp.div RNE .def_83 (fp #b0 #b10000101 #b11100000000000000000000))))
(let ((.def_87 (fp.div RNE .def_79 (fp #b0 #b10000001 #b10000000000000000000000))))
(let ((.def_88 (fp.neg .def_87)))
(let ((.def_89 (fp.add RNE .def_74 .def_88)))
(let ((.def_91 (fp.add RNE .def_89 .def_90)))
(let ((.def_94 (fp.add RNE .def_91 .def_93)))
(let ((.def_95 (fp.div RNE .def_94 .def_86)))
(let ((.def_96 (fp.neg .def_95)))
(let ((.def_97 (fp.add RNE .def_74 .def_96)))
(let ((.def_98 ((_ to_fp 11 53) RNE .def_97)))
(let ((.def_101 (fp.lt .def_98 (fp #b0 #b01111111011 #b1001100110011001100110011001100110011001100110011010))))
(let ((.def_102 (not .def_101)))
(let ((.def_15 (fp.lt (fp #b1 #b01111111 #b00000000000000000000000) |c::main::1::IN!0@1#0|)))
(let ((.def_12 (fp.lt |c::main::1::IN!0@1#0| (fp #b0 #b01111111 #b00000000000000000000000))))
(let ((.def_16 (and .def_12 .def_15)))
(let ((.def_103 (and .def_16 .def_102)))
.def_103)))))))))))))))))))))))))))))))))))))))))))))))))))))))))))))))))))))))))))))
(check-sat)
